(set-logic HORN)

(declare-datatypes ((Nat_0 0)) (((Z_1 ) (Z_2  (unS_0 Nat_0)))))
(declare-datatypes ((list_0 0)) (((nil_0 ) (cons_0  (head_0 Nat_0) (tail_0 list_0)))))

(declare-fun |diseqNat_0| ( Nat_0 Nat_0 ) Bool)
(declare-fun |odds_0| ( list_0 list_0 ) Bool)
(declare-fun |diseqlist_0| ( list_0 list_0 ) Bool)
(declare-fun |interleave_0| ( list_0 list_0 list_0 ) Bool)
(declare-fun |evens_0| ( list_0 list_0 ) Bool)

(assert
  (forall ( (A Nat_0) (B Nat_0) (v_2 Nat_0) ) 
    (=>
      (and
        (and (= A (Z_2 B)) (= v_2 Z_1))
      )
      (diseqNat_0 v_2 A)
    )
  )
)
(assert
  (forall ( (A Nat_0) (B Nat_0) (v_2 Nat_0) ) 
    (=>
      (and
        (and (= A (Z_2 B)) (= v_2 Z_1))
      )
      (diseqNat_0 A v_2)
    )
  )
)
(assert
  (forall ( (A Nat_0) (B Nat_0) (C Nat_0) (D Nat_0) ) 
    (=>
      (and
        (diseqNat_0 C D)
        (and (= A (Z_2 D)) (= B (Z_2 C)))
      )
      (diseqNat_0 B A)
    )
  )
)
(assert
  (forall ( (A list_0) (B Nat_0) (C list_0) (v_3 list_0) ) 
    (=>
      (and
        (and (= A (cons_0 B C)) (= v_3 nil_0))
      )
      (diseqlist_0 v_3 A)
    )
  )
)
(assert
  (forall ( (A list_0) (B Nat_0) (C list_0) (v_3 list_0) ) 
    (=>
      (and
        (and (= A (cons_0 B C)) (= v_3 nil_0))
      )
      (diseqlist_0 A v_3)
    )
  )
)
(assert
  (forall ( (A list_0) (B list_0) (C Nat_0) (D list_0) (E Nat_0) (F list_0) ) 
    (=>
      (and
        (diseqNat_0 C E)
        (and (= B (cons_0 C D)) (= A (cons_0 E F)))
      )
      (diseqlist_0 B A)
    )
  )
)
(assert
  (forall ( (A list_0) (B list_0) (C Nat_0) (D list_0) (E Nat_0) (F list_0) ) 
    (=>
      (and
        (diseqlist_0 D F)
        (and (= B (cons_0 C D)) (= A (cons_0 E F)))
      )
      (diseqlist_0 B A)
    )
  )
)
(assert
  (forall ( (A list_0) (B list_0) (C list_0) (D Nat_0) (E list_0) (F list_0) ) 
    (=>
      (and
        (interleave_0 C F E)
        (and (= B (cons_0 D C)) (= A (cons_0 D E)))
      )
      (interleave_0 B A F)
    )
  )
)
(assert
  (forall ( (A list_0) (v_1 list_0) (v_2 list_0) ) 
    (=>
      (and
        (and true (= v_1 nil_0) (= v_2 A))
      )
      (interleave_0 A v_1 v_2)
    )
  )
)
(assert
  (forall ( (A list_0) (B list_0) (C list_0) (D Nat_0) (E list_0) ) 
    (=>
      (and
        (odds_0 C E)
        (and (= B (cons_0 D C)) (= A (cons_0 D E)))
      )
      (evens_0 B A)
    )
  )
)
(assert
  (forall ( (v_0 list_0) (v_1 list_0) ) 
    (=>
      (and
        (and true (= v_0 nil_0) (= v_1 nil_0))
      )
      (evens_0 v_0 v_1)
    )
  )
)
(assert
  (forall ( (A list_0) (B list_0) (C Nat_0) (D list_0) ) 
    (=>
      (and
        (evens_0 B D)
        (= A (cons_0 C D))
      )
      (odds_0 B A)
    )
  )
)
(assert
  (forall ( (v_0 list_0) (v_1 list_0) ) 
    (=>
      (and
        (and true (= v_0 nil_0) (= v_1 nil_0))
      )
      (odds_0 v_0 v_1)
    )
  )
)
(assert
  (forall ( (A list_0) (B list_0) (C list_0) (D list_0) ) 
    (=>
      (and
        (evens_0 A D)
        (interleave_0 C A B)
        (odds_0 B D)
        (diseqlist_0 C D)
        true
      )
      false
    )
  )
)

(check-sat)
(exit)
